DIMACS_lns/graph-1000-993.col
p edge 1000 1855
e 2 887
e 2 715
e 2 717
e 3 168
e 3 730
e 3 661
e 3 315
e 3 978
e 3 198
e 3 467
e 4 500
e 4 91
e 4 310
e 4 227
e 4 198
e 4 214
e 4 386
e 5 569
e 5 634
e 5 626
e 5 476
e 6 987
e 6 187
e 6 494
e 6 435
e 6 123
e 6 509
e 7 212
e 7 478
e 7 531
e 7 147
e 7 526
e 8 900
e 8 527
e 8 615
e 8 801
e 9 420
e 9 497
e 9 25
e 10 562
e 10 726
e 10 96
e 10 930
e 10 345
e 10 758
e 10 842
e 12 678
e 12 443
e 12 672
e 12 455
e 13 694
e 13 913
e 13 434
e 13 746
e 13 530
e 13 222
e 13 18
e 14 261
e 14 275
e 14 550
e 15 433
e 15 377
e 15 667
e 16 856
e 16 467
e 16 326
e 17 771
e 17 471
e 17 764
e 17 76
e 17 150
e 18 428
e 18 872
e 18 208
e 18 292
e 18 55
e 18 790
e 19 591
e 19 718
e 19 537
e 19 797
e 20 373
e 20 292
e 20 110
e 20 567
e 20 122
e 21 254
e 21 759
e 21 85
e 21 100
e 22 704
e 22 649
e 22 924
e 23 875
e 23 78
e 23 137
e 23 765
e 24 51
e 24 599
e 24 335
e 24 241
e 25 371
e 25 719
e 25 876
e 25 597
e 25 324
e 25 781
e 26 567
e 26 384
e 26 323
e 26 955
e 27 480
e 27 62
e 27 203
e 27 451
e 27 310
e 28 749
e 28 645
e 28 835
e 28 591
e 30 701
e 30 864
e 30 749
e 30 62
e 30 328
e 31 679
e 31 389
e 31 207
e 31 961
e 31 173
e 31 586
e 32 77
e 32 990
e 32 942
e 32 683
e 33 689
e 33 535
e 33 586
e 33 70
e 33 764
e 34 697
e 34 816
e 34 356
e 35 75
e 35 470
e 35 293
e 35 650
e 35 917
e 35 649
e 35 628
e 35 742
e 37 641
e 37 877
e 37 943
e 38 343
e 38 349
e 38 615
e 38 448
e 38 238
e 42 953
e 42 761
e 42 587
e 43 603
e 43 781
e 43 981
e 43 852
e 43 386
e 43 743
e 43 113
e 43 320
e 46 665
e 46 168
e 46 341
e 46 432
e 46 401
e 47 832
e 47 630
e 47 170
e 48 843
e 48 174
e 48 686
e 49 674
e 49 217
e 49 248
e 51 613
e 51 570
e 51 675
e 52 984
e 52 943
e 52 177
e 52 539
e 52 115
e 54 170
e 54 584
e 54 527
e 54 614
e 55 800
e 55 661
e 56 972
e 56 137
e 56 247
e 56 64
e 58 900
e 58 624
e 58 212
e 58 650
e 58 610
e 58 255
e 59 992
e 59 628
e 59 134
e 59 177
e 60 86
e 60 534
e 60 381
e 60 458
e 60 870
e 60 695
e 60 977
e 60 377
e 61 987
e 61 992
e 61 842
e 61 780
e 61 261
e 61 613
e 62 202
e 62 356
e 62 712
e 62 360
e 62 589
e 64 218
e 64 847
e 64 68
e 64 666
e 64 872
e 65 723
e 65 544
e 65 613
e 65 725
e 66 856
e 66 328
e 66 451
e 67 609
e 67 329
e 67 266
e 67 127
e 68 998
e 68 734
e 68 591
e 68 153
e 69 562
e 69 413
e 69 627
e 69 467
e 70 639
e 70 897
e 70 797
e 70 698
e 71 564
e 71 139
e 71 870
e 71 887
e 71 431
e 71 648
e 71 497
e 72 906
e 72 257
e 72 473
e 72 651
e 73 946
e 73 909
e 73 314
e 73 930
e 75 906
e 75 596
e 75 197
e 75 771
e 75 987
e 76 709
e 76 108
e 77 135
e 77 156
e 77 628
e 78 187
e 78 580
e 78 956
e 78 663
e 78 365
e 78 455
e 78 967
e 79 618
e 79 580
e 79 802
e 80 294
e 80 289
e 80 474
e 80 224
e 80 583
e 81 150
e 81 421
e 81 512
e 81 428
e 82 651
e 82 603
e 82 698
e 82 420
e 82 971
e 83 110
e 83 329
e 83 491
e 83 400
e 84 884
e 84 925
e 84 978
e 84 228
e 84 94
e 85 119
e 85 966
e 85 660
e 85 956
e 85 268
e 86 400
e 86 371
e 86 284
e 86 707
e 87 336
e 87 698
e 87 436
e 87 967
e 87 309
e 87 351
e 88 688
e 88 775
e 88 949
e 89 620
e 89 365
e 89 315
e 89 882
e 90 503
e 90 120
e 90 712
e 91 881
e 91 484
e 91 757
e 91 462
e 92 364
e 92 314
e 92 307
e 92 488
e 92 986
e 94 607
e 94 891
e 94 662
e 94 480
e 94 498
e 94 787
e 94 736
e 95 939
e 95 802
e 95 759
e 96 312
e 96 819
e 98 123
e 98 480
e 98 390
e 99 465
e 99 726
e 99 770
e 99 626
e 100 895
e 100 364
e 100 156
e 100 346
e 103 475
e 103 872
e 103 121
e 103 712
e 103 997
e 103 386
e 103 938
e 104 211
e 104 932
e 104 941
e 104 870
e 105 983
e 105 623
e 105 989
e 105 157
e 105 526
e 105 218
e 105 772
e 108 848
e 108 820
e 108 511
e 108 578
e 108 658
e 109 578
e 109 699
e 109 889
e 109 716
e 109 840
e 110 639
e 110 955
e 110 480
e 112 227
e 112 961
e 112 994
e 112 256
e 112 477
e 112 569
e 112 287
e 113 575
e 113 805
e 113 359
e 113 322
e 115 858
e 115 138
e 115 746
e 116 455
e 116 536
e 116 996
e 116 836
e 116 575
e 116 590
e 116 277
e 118 148
e 118 758
e 118 816
e 119 544
e 119 784
e 119 671
e 119 248
e 119 214
e 119 756
e 119 960
e 119 202
e 119 262
e 120 393
e 120 836
e 120 957
e 121 396
e 121 501
e 121 956
e 122 855
e 122 865
e 122 274
e 123 512
e 124 539
e 124 538
e 124 431
e 124 730
e 125 682
e 125 943
e 125 163
e 125 350
e 125 286
e 125 843
e 125 253
e 125 234
e 127 908
e 127 400
e 127 949
e 127 179
e 127 985
e 127 650
e 128 958
e 128 532
e 128 662
e 128 528
e 128 130
e 130 720
e 130 829
e 130 599
e 130 780
e 130 320
e 130 725
e 130 364
e 130 474
e 131 338
e 131 328
e 131 226
e 131 909
e 131 881
e 131 241
e 133 420
e 133 708
e 133 590
e 133 502
e 133 908
e 134 627
e 134 419
e 134 433
e 134 975
e 135 645
e 135 512
e 137 804
e 137 768
e 137 399
e 138 749
e 138 583
e 138 402
e 138 913
e 139 643
e 139 963
e 139 494
e 139 342
e 139 582
e 140 237
e 140 633
e 140 977
e 140 799
e 142 486
e 142 666
e 142 181
e 142 312
e 142 217
e 142 654
e 145 455
e 145 477
e 145 427
e 145 439
e 147 604
e 147 831
e 148 899
e 148 861
e 148 737
e 148 608
e 149 697
e 149 830
e 149 934
e 149 586
e 149 390
e 150 988
e 150 785
e 150 505
e 150 964
e 152 203
e 152 689
e 152 217
e 152 256
e 153 714
e 153 612
e 154 339
e 154 418
e 154 733
e 154 380
e 154 235
e 154 626
e 155 452
e 155 929
e 155 576
e 155 806
e 155 955
e 156 340
e 156 800
e 156 227
e 156 587
e 156 865
e 157 240
e 157 677
e 159 992
e 159 490
e 159 357
e 159 360
e 160 339
e 160 283
e 160 999
e 160 843
e 161 424
e 161 188
e 161 944
e 161 189
e 162 491
e 162 921
e 162 627
e 163 696
e 163 169
e 163 431
e 165 909
e 165 998
e 165 560
e 168 877
e 168 609
e 169 746
e 169 548
e 169 556
e 170 448
e 170 817
e 172 818
e 172 842
e 172 336
e 172 425
e 172 394
e 172 845
e 173 656
e 173 677
e 173 845
e 174 478
e 174 945
e 174 312
e 175 187
e 175 689
e 175 864
e 175 354
e 176 943
e 176 506
e 176 971
e 176 592
e 177 918
e 177 264
e 178 378
e 178 373
e 178 442
e 179 394
e 179 183
e 179 702
e 181 447
e 181 616
e 181 508
e 181 789
e 183 467
e 183 475
e 184 427
e 184 633
e 184 711
e 184 466
e 184 349
e 184 561
e 186 393
e 186 550
e 186 991
e 187 419
e 187 468
e 188 534
e 188 257
e 188 672
e 188 499
e 189 553
e 189 716
e 189 990
e 189 399
e 189 394
e 191 363
e 191 694
e 191 671
e 191 242
e 191 683
e 197 497
e 197 625
e 197 388
e 197 453
e 197 474
e 198 733
e 201 225
e 201 243
e 201 384
e 201 341
e 202 427
e 203 566
e 203 753
e 203 226
e 203 466
e 203 995
e 203 305
e 204 555
e 204 448
e 204 843
e 204 274
e 204 752
e 207 418
e 207 564
e 207 644
e 207 930
e 208 343
e 208 289
e 208 509
e 208 498
e 208 241
e 208 501
e 210 609
e 210 717
e 210 654
e 210 886
e 211 461
e 211 642
e 211 776
e 211 462
e 211 946
e 211 703
e 212 304
e 212 974
e 212 742
e 213 955
e 213 293
e 213 622
e 214 222
e 214 607
e 214 566
e 214 971
e 217 549
e 217 263
e 218 364
e 218 681
e 218 503
e 221 387
e 221 365
e 221 489
e 221 575
e 222 635
e 222 248
e 222 792
e 223 454
e 223 398
e 223 631
e 223 499
e 223 727
e 224 420
e 224 740
e 225 699
e 225 688
e 226 248
e 227 451
e 227 756
e 227 373
e 227 586
e 228 414
e 228 359
e 228 913
e 229 425
e 229 697
e 229 358
e 229 518
e 230 469
e 230 536
e 230 505
e 230 801
e 230 298
e 231 681
e 231 835
e 231 338
e 231 955
e 231 235
e 232 810
e 232 725
e 232 964
e 233 943
e 233 413
e 233 421
e 233 235
e 233 712
e 234 928
e 234 805
e 234 892
e 234 716
e 235 787
e 235 675
e 235 737
e 235 495
e 237 400
e 237 845
e 237 703
e 237 352
e 238 354
e 238 943
e 238 313
e 238 900
e 238 934
e 239 462
e 239 956
e 239 631
e 239 854
e 239 545
e 240 419
e 240 911
e 241 399
e 241 487
e 241 384
e 241 932
e 241 773
e 242 942
e 242 441
e 242 390
e 242 453
e 242 932
e 242 901
e 243 301
e 243 882
e 243 827
e 243 493
e 244 808
e 244 361
e 244 435
e 244 667
e 246 476
e 246 942
e 246 881
e 247 589
e 247 750
e 247 489
e 247 941
e 247 323
e 248 633
e 248 839
e 248 772
e 249 714
e 249 841
e 249 821
e 249 576
e 251 688
e 251 790
e 251 870
e 253 320
e 253 313
e 254 341
e 254 560
e 254 992
e 255 861
e 255 508
e 255 665
e 255 387
e 255 609
e 256 661
e 257 842
e 257 711
e 257 514
e 257 389
e 257 998
e 257 840
e 257 483
e 259 517
e 259 810
e 259 319
e 259 678
e 259 825
e 261 697
e 261 689
e 262 401
e 262 865
e 263 873
e 263 984
e 263 961
e 264 538
e 264 681
e 265 279
e 265 727
e 265 912
e 266 708
e 266 491
e 266 561
e 268 428
e 268 757
e 268 950
e 268 820
e 268 658
e 268 873
e 268 992
e 268 569
e 270 860
e 270 941
e 270 616
e 271 767
e 271 318
e 271 960
e 273 567
e 273 508
e 273 358
e 274 384
e 275 986
e 275 565
e 275 612
e 275 804
e 275 956
e 277 445
e 277 891
e 277 465
e 278 940
e 278 651
e 278 752
e 278 764
e 278 436
e 279 312
e 279 400
e 280 768
e 280 921
e 280 419
e 280 964
e 282 480
e 282 345
e 282 607
e 283 779
e 283 923
e 284 973
e 284 339
e 284 832
e 284 688
e 284 955
e 286 720
e 286 625
e 287 719
e 287 346
e 289 766
e 292 382
e 293 855
e 293 518
e 294 774
e 294 524
e 294 389
e 294 848
e 297 566
e 297 325
e 297 931
e 297 948
e 298 760
e 298 483
e 298 564
e 298 618
e 300 367
e 300 427
e 300 397
e 300 526
e 301 612
e 301 355
e 301 315
e 301 846
e 301 347
e 302 652
e 302 448
e 302 640
e 302 717
e 302 354
e 304 349
e 304 379
e 304 603
e 305 618
e 305 672
e 305 402
e 305 382
e 305 421
e 306 682
e 306 391
e 306 764
e 306 861
e 307 799
e 307 956
e 307 997
e 308 548
e 308 783
e 308 352
e 309 347
e 309 329
e 309 580
e 310 736
e 310 814
e 312 710
e 312 603
e 312 830
e 313 734
e 313 769
e 313 666
e 313 626
e 314 384
e 314 562
e 314 970
e 315 429
e 315 472
e 315 499
e 315 394
e 315 560
e 317 903
e 317 986
e 317 802
e 318 687
e 318 372
e 319 909
e 319 496
e 319 663
e 319 644
e 320 512
e 320 376
e 320 515
e 320 497
e 321 823
e 321 615
e 321 480
e 322 419
e 322 628
e 323 904
e 323 609
e 323 494
e 323 379
e 323 342
e 324 979
e 324 415
e 324 687
e 324 865
e 324 746
e 325 850
e 325 387
e 326 393
e 326 466
e 326 345
e 326 337
e 328 972
e 328 375
e 328 941
e 328 393
e 328 841
e 328 995
e 329 816
e 329 964
e 329 781
e 329 725
e 332 591
e 332 340
e 332 728
e 335 442
e 335 376
e 335 679
e 335 634
e 335 951
e 335 931
e 335 521
e 335 475
e 336 614
e 336 986
e 336 875
e 337 998
e 337 714
e 337 521
e 337 950
e 337 644
e 337 984
e 337 972
e 338 582
e 338 383
e 338 384
e 339 946
e 339 761
e 339 797
e 340 498
e 340 809
e 340 527
e 340 726
e 341 405
e 342 384
e 342 901
e 343 703
e 343 456
e 345 445
e 345 696
e 346 532
e 346 702
e 347 733
e 347 629
e 350 714
e 350 870
e 350 812
e 350 842
e 350 434
e 350 929
e 351 759
e 351 595
e 351 989
e 352 990
e 352 526
e 352 742
e 355 471
e 355 849
e 355 728
e 355 700
e 356 957
e 356 906
e 356 545
e 357 402
e 357 651
e 357 434
e 358 462
e 358 650
e 359 373
e 359 777
e 360 953
e 361 855
e 361 540
e 361 985
e 362 363
e 362 390
e 362 593
e 363 927
e 363 918
e 363 682
e 365 958
e 365 983
e 365 536
e 366 422
e 366 620
e 366 981
e 366 538
e 366 613
e 367 398
e 367 953
e 371 584
e 372 748
e 372 678
e 372 789
e 373 635
e 373 571
e 375 888
e 375 965
e 375 777
e 375 425
e 375 379
e 376 659
e 376 709
e 377 441
e 377 596
e 377 542
e 378 553
e 378 383
e 378 923
e 378 685
e 378 937
e 378 815
e 378 969
e 379 565
e 379 509
e 379 773
e 379 940
e 380 399
e 380 823
e 381 524
e 381 474
e 381 645
e 381 411
e 382 708
e 382 556
e 382 999
e 382 819
e 382 752
e 383 539
e 387 477
e 387 403
e 387 567
e 387 675
e 388 887
e 388 710
e 388 432
e 389 652
e 389 434
e 389 542
e 389 394
e 389 455
e 390 822
e 390 516
e 391 710
e 391 717
e 391 926
e 393 445
e 393 640
e 393 663
e 394 709
e 394 814
e 394 444
e 396 990
e 396 521
e 397 487
e 397 629
e 397 466
e 398 979
e 398 807
e 398 752
e 398 746
e 398 473
e 398 530
e 399 938
e 399 514
e 399 414
e 399 684
e 400 605
e 401 448
e 401 775
e 402 960
e 402 494
e 402 716
e 403 967
e 403 631
e 403 945
e 404 740
e 404 575
e 404 528
e 405 593
e 405 674
e 407 458
e 407 436
e 407 534
e 411 944
e 411 789
e 411 762
e 411 672
e 413 634
e 413 570
e 414 798
e 414 542
e 414 562
e 414 643
e 414 632
e 415 913
e 415 894
e 415 806
e 416 644
e 416 861
e 416 568
e 418 569
e 418 872
e 418 589
e 418 704
e 419 444
e 419 499
e 420 648
e 420 944
e 420 794
e 420 495
e 420 895
e 422 903
e 422 687
e 424 701
e 424 682
e 424 618
e 425 814
e 427 822
e 427 610
e 427 697
e 427 531
e 428 517
e 429 437
e 429 960
e 431 470
e 431 893
e 431 480
e 432 758
e 432 501
e 433 648
e 433 671
e 434 539
e 434 643
e 434 536
e 435 548
e 435 650
e 436 798
e 436 725
e 437 528
e 437 823
e 437 709
e 437 979
e 439 723
e 439 478
e 439 592
e 441 843
e 441 904
e 441 582
e 441 911
e 442 609
e 442 854
e 442 959
e 442 659
e 442 747
e 442 515
e 443 622
e 443 553
e 444 850
e 444 490
e 444 860
e 445 908
e 445 964
e 445 759
e 447 784
e 447 513
e 447 734
e 448 973
e 448 519
e 452 605
e 452 552
e 452 648
e 453 508
e 453 774
e 453 587
e 453 976
e 454 700
e 454 605
e 455 875
e 456 715
e 456 458
e 458 494
e 458 555
e 458 809
e 458 553
e 458 934
e 458 587
e 461 560
e 461 926
e 461 678
e 461 658
e 462 683
e 462 604
e 462 702
e 462 792
e 462 974
e 465 858
e 466 471
e 466 949
e 467 902
e 467 992
e 467 583
e 468 489
e 468 992
e 468 808
e 468 779
e 468 928
e 468 683
e 468 748
e 469 576
e 469 881
e 469 726
e 470 654
e 470 784
e 470 521
e 472 747
e 472 675
e 472 842
e 473 779
e 473 671
e 473 534
e 473 767
e 474 736
e 474 531
e 474 584
e 474 512
e 474 928
e 474 882
e 474 656
e 475 920
e 476 921
e 476 566
e 476 774
e 477 672
e 477 683
e 478 485
e 478 932
e 480 568
e 480 915
e 480 984
e 480 553
e 483 966
e 484 529
e 484 800
e 485 837
e 485 623
e 485 766
e 486 617
e 486 695
e 486 511
e 487 658
e 488 631
e 488 827
e 489 671
e 490 971
e 490 580
e 490 718
e 491 749
e 491 949
e 491 499
e 492 973
e 492 798
e 492 513
e 492 700
e 493 812
e 493 593
e 493 976
e 494 825
e 495 956
e 496 764
e 496 615
e 496 894
e 496 740
e 497 759
e 498 628
e 498 560
e 498 918
e 499 593
e 499 645
e 500 837
e 500 840
e 500 708
e 501 781
e 502 822
e 502 612
e 503 969
e 504 849
e 504 767
e 504 623
e 504 836
e 505 849
e 505 785
e 506 940
e 506 616
e 506 761
e 506 632
e 507 850
e 507 864
e 507 774
e 508 514
e 508 939
e 508 818
e 508 761
e 509 517
e 509 850
e 509 605
e 509 728
e 511 845
e 511 816
e 511 974
e 512 756
e 512 920
e 512 982
e 513 644
e 515 862
e 515 712
e 516 770
e 516 661
e 517 570
e 517 940
e 517 845
e 517 568
e 518 911
e 518 913
e 518 940
e 518 566
e 519 566
e 519 981
e 519 837
e 521 818
e 521 556
e 521 988
e 524 538
e 524 658
e 524 634
e 526 560
e 527 823
e 527 918
e 527 719
e 528 571
e 529 604
e 529 969
e 529 634
e 529 797
e 530 920
e 530 832
e 530 767
e 531 651
e 532 652
e 534 843
e 535 832
e 535 545
e 536 886
e 536 902
e 536 893
e 537 540
e 537 785
e 537 633
e 537 819
e 538 925
e 538 554
e 538 819
e 538 660
e 539 582
e 539 702
e 540 800
e 542 938
e 544 970
e 545 931
e 548 613
e 548 627
e 548 963
e 548 640
e 549 648
e 549 703
e 550 969
e 550 590
e 550 946
e 552 799
e 552 639
e 552 978
e 553 718
e 553 787
e 553 575
e 554 593
e 554 749
e 555 816
e 556 911
e 556 681
e 556 997
e 556 827
e 556 768
e 560 610
e 560 659
e 560 711
e 561 829
e 561 925
e 561 780
e 562 911
e 562 862
e 564 800
e 564 566
e 565 931
e 565 805
e 565 827
e 566 672
e 566 725
e 567 964
e 567 615
e 568 684
e 568 785
e 569 596
e 570 684
e 570 688
e 570 592
e 570 781
e 571 660
e 571 923
e 575 996
e 575 812
e 576 943
e 576 958
e 578 633
e 578 584
e 582 839
e 582 599
e 584 816
e 584 945
e 589 882
e 590 620
e 590 953
e 591 696
e 591 915
e 593 759
e 595 609
e 595 734
e 596 847
e 597 994
e 597 701
e 597 681
e 597 727
e 599 982
e 599 903
e 599 753
e 599 618
e 600 689
e 600 842
e 600 690
e 604 613
e 604 903
e 604 621
e 604 748
e 604 682
e 605 663
e 605 815
e 607 790
e 607 753
e 608 984
e 608 811
e 609 802
e 609 690
e 610 809
e 610 975
e 612 923
e 613 770
e 613 887
e 614 768
e 614 681
e 614 964
e 615 662
e 615 837
e 615 783
e 616 854
e 616 711
e 616 806
e 617 633
e 617 696
e 618 811
e 618 948
e 621 727
e 621 843
e 621 635
e 622 659
e 622 752
e 623 677
e 623 642
e 624 772
e 624 973
e 625 862
e 626 961
e 627 865
e 628 677
e 628 958
e 629 779
e 630 964
e 630 881
e 631 769
e 632 869
e 633 701
e 633 648
e 634 984
e 635 858
e 640 779
e 641 847
e 641 768
e 642 865
e 643 894
e 643 876
e 643 979
e 645 783
e 648 940
e 649 836
e 650 715
e 650 959
e 650 790
e 650 817
e 650 681
e 651 781
e 652 667
e 654 946
e 656 856
e 658 806
e 658 752
e 659 968
e 660 903
e 662 767
e 662 746
e 664 990
e 664 765
e 664 904
e 664 817
e 665 815
e 666 687
e 666 777
e 666 899
e 671 958
e 671 714
e 672 774
e 672 777
e 672 768
e 674 988
e 675 829
e 675 737
e 679 949
e 681 707
e 681 965
e 681 710
e 683 888
e 684 773
e 685 854
e 685 855
e 685 700
e 686 985
e 686 804
e 688 743
e 689 700
e 690 850
e 690 893
e 694 814
e 694 831
e 695 945
e 695 904
e 696 789
e 696 981
e 698 899
e 698 927
e 699 854
e 699 995
e 699 779
e 700 979
e 700 934
e 701 909
e 701 877
e 703 892
e 703 870
e 703 982
e 704 764
e 704 849
e 707 861
e 707 807
e 708 750
e 708 924
e 708 999
e 708 958
e 709 895
e 709 770
e 709 932
e 710 901
e 710 895
e 711 835
e 714 971
e 715 804
e 716 765
e 716 869
e 717 742
e 720 926
e 720 977
e 720 888
e 720 728
e 723 840
e 726 998
e 727 965
e 728 862
e 730 831
e 730 825
e 734 816
e 736 937
e 736 794
e 737 939
e 737 837
e 740 893
e 740 756
e 740 753
e 742 829
e 743 949
e 743 923
e 747 937
e 747 771
e 747 889
e 748 965
e 748 982
e 749 904
e 749 852
e 749 787
e 750 768
e 752 915
e 753 805
e 756 827
e 757 839
e 757 777
e 758 789
e 758 817
e 759 792
e 760 839
e 760 903
e 761 973
e 761 917
e 761 927
e 762 926
e 762 963
e 764 988
e 766 836
e 768 943
e 769 860
e 770 975
e 771 897
e 771 948
e 771 837
e 772 946
e 772 861
e 774 882
e 774 889
e 775 915
e 776 814
e 776 852
e 776 856
e 779 972
e 779 884
e 779 830
e 779 810
e 779 821
e 783 882
e 783 975
e 784 999
e 789 902
e 789 900
e 789 811
e 789 998
e 794 912
e 797 902
e 798 931
e 799 801
e 799 991
e 800 997
e 802 925
e 802 876
e 805 812
e 807 827
e 808 927
e 809 810
e 810 917
e 812 979
e 812 951
e 815 915
e 820 924
e 820 970
e 820 841
e 821 950
e 825 985
e 827 977
e 827 854
e 830 900
e 830 937
e 830 892
e 832 976
e 840 848
e 846 996
e 846 904
e 847 925
e 848 864
e 852 925
e 852 973
e 854 959
e 855 870
e 856 972
e 862 957
e 869 897
e 869 979
e 872 886
e 873 981
e 875 891
e 876 924
e 882 912
e 884 955
e 884 969
e 887 912
e 888 996
e 893 918
e 894 937
e 897 899
e 913 966
e 913 932
e 915 991
e 915 938
e 915 994
e 917 977
e 918 925
e 921 977
e 924 969
e 926 961
e 926 950
e 929 964
e 934 940
e 945 982
e 951 959
e 953 959
e 961 989
e 963 979
e 964 991
e 968 988
e 968 978
e 983 984
e 988 998
e 997 998
