txt_Ins/graph-1000-993.txt
n 1000
e 1 886
e 1 714
e 1 716
e 2 167
e 2 729
e 2 660
e 2 314
e 2 977
e 2 197
e 2 466
e 3 499
e 3 90
e 3 309
e 3 226
e 3 197
e 3 213
e 3 385
e 4 568
e 4 633
e 4 625
e 4 475
e 5 986
e 5 186
e 5 493
e 5 434
e 5 122
e 5 508
e 6 211
e 6 477
e 6 530
e 6 146
e 6 525
e 7 899
e 7 526
e 7 614
e 7 800
e 8 419
e 8 496
e 8 24
e 9 561
e 9 725
e 9 95
e 9 929
e 9 344
e 9 757
e 9 841
e 11 677
e 11 442
e 11 671
e 11 454
e 12 693
e 12 912
e 12 433
e 12 745
e 12 529
e 12 221
e 12 17
e 13 260
e 13 274
e 13 549
e 14 432
e 14 376
e 14 666
e 15 855
e 15 466
e 15 325
e 16 770
e 16 470
e 16 763
e 16 75
e 16 149
e 17 427
e 17 871
e 17 207
e 17 291
e 17 54
e 17 789
e 18 590
e 18 717
e 18 536
e 18 796
e 19 372
e 19 291
e 19 109
e 19 566
e 19 121
e 20 253
e 20 758
e 20 84
e 20 99
e 21 703
e 21 648
e 21 923
e 22 874
e 22 77
e 22 136
e 22 764
e 23 50
e 23 598
e 23 334
e 23 240
e 24 370
e 24 718
e 24 875
e 24 596
e 24 323
e 24 780
e 25 566
e 25 383
e 25 322
e 25 954
e 26 479
e 26 61
e 26 202
e 26 450
e 26 309
e 27 748
e 27 644
e 27 834
e 27 590
e 29 700
e 29 863
e 29 748
e 29 61
e 29 327
e 30 678
e 30 388
e 30 206
e 30 960
e 30 172
e 30 585
e 31 76
e 31 989
e 31 941
e 31 682
e 32 688
e 32 534
e 32 585
e 32 69
e 32 763
e 33 696
e 33 815
e 33 355
e 34 74
e 34 469
e 34 292
e 34 649
e 34 916
e 34 648
e 34 627
e 34 741
e 36 640
e 36 876
e 36 942
e 37 342
e 37 348
e 37 614
e 37 447
e 37 237
e 41 952
e 41 760
e 41 586
e 42 602
e 42 780
e 42 980
e 42 851
e 42 385
e 42 742
e 42 112
e 42 319
e 45 664
e 45 167
e 45 340
e 45 431
e 45 400
e 46 831
e 46 629
e 46 169
e 47 842
e 47 173
e 47 685
e 48 673
e 48 216
e 48 247
e 50 612
e 50 569
e 50 674
e 51 983
e 51 942
e 51 176
e 51 538
e 51 114
e 53 169
e 53 583
e 53 526
e 53 613
e 54 799
e 54 660
e 55 971
e 55 136
e 55 246
e 55 63
e 57 899
e 57 623
e 57 211
e 57 649
e 57 609
e 57 254
e 58 991
e 58 627
e 58 133
e 58 176
e 59 85
e 59 533
e 59 380
e 59 457
e 59 869
e 59 694
e 59 976
e 59 376
e 60 986
e 60 991
e 60 841
e 60 779
e 60 260
e 60 612
e 61 201
e 61 355
e 61 711
e 61 359
e 61 588
e 63 217
e 63 846
e 63 67
e 63 665
e 63 871
e 64 722
e 64 543
e 64 612
e 64 724
e 65 855
e 65 327
e 65 450
e 66 608
e 66 328
e 66 265
e 66 126
e 67 997
e 67 733
e 67 590
e 67 152
e 68 561
e 68 412
e 68 626
e 68 466
e 69 638
e 69 896
e 69 796
e 69 697
e 70 563
e 70 138
e 70 869
e 70 886
e 70 430
e 70 647
e 70 496
e 71 905
e 71 256
e 71 472
e 71 650
e 72 945
e 72 908
e 72 313
e 72 929
e 74 905
e 74 595
e 74 196
e 74 770
e 74 986
e 75 708
e 75 107
e 76 134
e 76 155
e 76 627
e 77 186
e 77 579
e 77 955
e 77 662
e 77 364
e 77 454
e 77 966
e 78 617
e 78 579
e 78 801
e 79 293
e 79 288
e 79 473
e 79 223
e 79 582
e 80 149
e 80 420
e 80 511
e 80 427
e 81 650
e 81 602
e 81 697
e 81 419
e 81 970
e 82 109
e 82 328
e 82 490
e 82 399
e 83 883
e 83 924
e 83 977
e 83 227
e 83 93
e 84 118
e 84 965
e 84 659
e 84 955
e 84 267
e 85 399
e 85 370
e 85 283
e 85 706
e 86 335
e 86 697
e 86 435
e 86 966
e 86 308
e 86 350
e 87 687
e 87 774
e 87 948
e 88 619
e 88 364
e 88 314
e 88 881
e 89 502
e 89 119
e 89 711
e 90 880
e 90 483
e 90 756
e 90 461
e 91 363
e 91 313
e 91 306
e 91 487
e 91 985
e 93 606
e 93 890
e 93 661
e 93 479
e 93 497
e 93 786
e 93 735
e 94 938
e 94 801
e 94 758
e 95 311
e 95 818
e 97 122
e 97 479
e 97 389
e 98 464
e 98 725
e 98 769
e 98 625
e 99 894
e 99 363
e 99 155
e 99 345
e 102 474
e 102 871
e 102 120
e 102 711
e 102 996
e 102 385
e 102 937
e 103 210
e 103 931
e 103 940
e 103 869
e 104 982
e 104 622
e 104 988
e 104 156
e 104 525
e 104 217
e 104 771
e 107 847
e 107 819
e 107 510
e 107 577
e 107 657
e 108 577
e 108 698
e 108 888
e 108 715
e 108 839
e 109 638
e 109 954
e 109 479
e 111 226
e 111 960
e 111 993
e 111 255
e 111 476
e 111 568
e 111 286
e 112 574
e 112 804
e 112 358
e 112 321
e 114 857
e 114 137
e 114 745
e 115 454
e 115 535
e 115 995
e 115 835
e 115 574
e 115 589
e 115 276
e 117 147
e 117 757
e 117 815
e 118 543
e 118 783
e 118 670
e 118 247
e 118 213
e 118 755
e 118 959
e 118 201
e 118 261
e 119 392
e 119 835
e 119 956
e 120 395
e 120 500
e 120 955
e 121 854
e 121 864
e 121 273
e 122 511
e 123 538
e 123 537
e 123 430
e 123 729
e 124 681
e 124 942
e 124 162
e 124 349
e 124 285
e 124 842
e 124 252
e 124 233
e 126 907
e 126 399
e 126 948
e 126 178
e 126 984
e 126 649
e 127 957
e 127 531
e 127 661
e 127 527
e 127 129
e 129 719
e 129 828
e 129 598
e 129 779
e 129 319
e 129 724
e 129 363
e 129 473
e 130 337
e 130 327
e 130 225
e 130 908
e 130 880
e 130 240
e 132 419
e 132 707
e 132 589
e 132 501
e 132 907
e 133 626
e 133 418
e 133 432
e 133 974
e 134 644
e 134 511
e 136 803
e 136 767
e 136 398
e 137 748
e 137 582
e 137 401
e 137 912
e 138 642
e 138 962
e 138 493
e 138 341
e 138 581
e 139 236
e 139 632
e 139 976
e 139 798
e 141 485
e 141 665
e 141 180
e 141 311
e 141 216
e 141 653
e 144 454
e 144 476
e 144 426
e 144 438
e 146 603
e 146 830
e 147 898
e 147 860
e 147 736
e 147 607
e 148 696
e 148 829
e 148 933
e 148 585
e 148 389
e 149 987
e 149 784
e 149 504
e 149 963
e 151 202
e 151 688
e 151 216
e 151 255
e 152 713
e 152 611
e 153 338
e 153 417
e 153 732
e 153 379
e 153 234
e 153 625
e 154 451
e 154 928
e 154 575
e 154 805
e 154 954
e 155 339
e 155 799
e 155 226
e 155 586
e 155 864
e 156 239
e 156 676
e 158 991
e 158 489
e 158 356
e 158 359
e 159 338
e 159 282
e 159 998
e 159 842
e 160 423
e 160 187
e 160 943
e 160 188
e 161 490
e 161 920
e 161 626
e 162 695
e 162 168
e 162 430
e 164 908
e 164 997
e 164 559
e 167 876
e 167 608
e 168 745
e 168 547
e 168 555
e 169 447
e 169 816
e 171 817
e 171 841
e 171 335
e 171 424
e 171 393
e 171 844
e 172 655
e 172 676
e 172 844
e 173 477
e 173 944
e 173 311
e 174 186
e 174 688
e 174 863
e 174 353
e 175 942
e 175 505
e 175 970
e 175 591
e 176 917
e 176 263
e 177 377
e 177 372
e 177 441
e 178 393
e 178 182
e 178 701
e 180 446
e 180 615
e 180 507
e 180 788
e 182 466
e 182 474
e 183 426
e 183 632
e 183 710
e 183 465
e 183 348
e 183 560
e 185 392
e 185 549
e 185 990
e 186 418
e 186 467
e 187 533
e 187 256
e 187 671
e 187 498
e 188 552
e 188 715
e 188 989
e 188 398
e 188 393
e 190 362
e 190 693
e 190 670
e 190 241
e 190 682
e 196 496
e 196 624
e 196 387
e 196 452
e 196 473
e 197 732
e 200 224
e 200 242
e 200 383
e 200 340
e 201 426
e 202 565
e 202 752
e 202 225
e 202 465
e 202 994
e 202 304
e 203 554
e 203 447
e 203 842
e 203 273
e 203 751
e 206 417
e 206 563
e 206 643
e 206 929
e 207 342
e 207 288
e 207 508
e 207 497
e 207 240
e 207 500
e 209 608
e 209 716
e 209 653
e 209 885
e 210 460
e 210 641
e 210 775
e 210 461
e 210 945
e 210 702
e 211 303
e 211 973
e 211 741
e 212 954
e 212 292
e 212 621
e 213 221
e 213 606
e 213 565
e 213 970
e 216 548
e 216 262
e 217 363
e 217 680
e 217 502
e 220 386
e 220 364
e 220 488
e 220 574
e 221 634
e 221 247
e 221 791
e 222 453
e 222 397
e 222 630
e 222 498
e 222 726
e 223 419
e 223 739
e 224 698
e 224 687
e 225 247
e 226 450
e 226 755
e 226 372
e 226 585
e 227 413
e 227 358
e 227 912
e 228 424
e 228 696
e 228 357
e 228 517
e 229 468
e 229 535
e 229 504
e 229 800
e 229 297
e 230 680
e 230 834
e 230 337
e 230 954
e 230 234
e 231 809
e 231 724
e 231 963
e 232 942
e 232 412
e 232 420
e 232 234
e 232 711
e 233 927
e 233 804
e 233 891
e 233 715
e 234 786
e 234 674
e 234 736
e 234 494
e 236 399
e 236 844
e 236 702
e 236 351
e 237 353
e 237 942
e 237 312
e 237 899
e 237 933
e 238 461
e 238 955
e 238 630
e 238 853
e 238 544
e 239 418
e 239 910
e 240 398
e 240 486
e 240 383
e 240 931
e 240 772
e 241 941
e 241 440
e 241 389
e 241 452
e 241 931
e 241 900
e 242 300
e 242 881
e 242 826
e 242 492
e 243 807
e 243 360
e 243 434
e 243 666
e 245 475
e 245 941
e 245 880
e 246 588
e 246 749
e 246 488
e 246 940
e 246 322
e 247 632
e 247 838
e 247 771
e 248 713
e 248 840
e 248 820
e 248 575
e 250 687
e 250 789
e 250 869
e 252 319
e 252 312
e 253 340
e 253 559
e 253 991
e 254 860
e 254 507
e 254 664
e 254 386
e 254 608
e 255 660
e 256 841
e 256 710
e 256 513
e 256 388
e 256 997
e 256 839
e 256 482
e 258 516
e 258 809
e 258 318
e 258 677
e 258 824
e 260 696
e 260 688
e 261 400
e 261 864
e 262 872
e 262 983
e 262 960
e 263 537
e 263 680
e 264 278
e 264 726
e 264 911
e 265 707
e 265 490
e 265 560
e 267 427
e 267 756
e 267 949
e 267 819
e 267 657
e 267 872
e 267 991
e 267 568
e 269 859
e 269 940
e 269 615
e 270 766
e 270 317
e 270 959
e 272 566
e 272 507
e 272 357
e 273 383
e 274 985
e 274 564
e 274 611
e 274 803
e 274 955
e 276 444
e 276 890
e 276 464
e 277 939
e 277 650
e 277 751
e 277 763
e 277 435
e 278 311
e 278 399
e 279 767
e 279 920
e 279 418
e 279 963
e 281 479
e 281 344
e 281 606
e 282 778
e 282 922
e 283 972
e 283 338
e 283 831
e 283 687
e 283 954
e 285 719
e 285 624
e 286 718
e 286 345
e 288 765
e 291 381
e 292 854
e 292 517
e 293 773
e 293 523
e 293 388
e 293 847
e 296 565
e 296 324
e 296 930
e 296 947
e 297 759
e 297 482
e 297 563
e 297 617
e 299 366
e 299 426
e 299 396
e 299 525
e 300 611
e 300 354
e 300 314
e 300 845
e 300 346
e 301 651
e 301 447
e 301 639
e 301 716
e 301 353
e 303 348
e 303 378
e 303 602
e 304 617
e 304 671
e 304 401
e 304 381
e 304 420
e 305 681
e 305 390
e 305 763
e 305 860
e 306 798
e 306 955
e 306 996
e 307 547
e 307 782
e 307 351
e 308 346
e 308 328
e 308 579
e 309 735
e 309 813
e 311 709
e 311 602
e 311 829
e 312 733
e 312 768
e 312 665
e 312 625
e 313 383
e 313 561
e 313 969
e 314 428
e 314 471
e 314 498
e 314 393
e 314 559
e 316 902
e 316 985
e 316 801
e 317 686
e 317 371
e 318 908
e 318 495
e 318 662
e 318 643
e 319 511
e 319 375
e 319 514
e 319 496
e 320 822
e 320 614
e 320 479
e 321 418
e 321 627
e 322 903
e 322 608
e 322 493
e 322 378
e 322 341
e 323 978
e 323 414
e 323 686
e 323 864
e 323 745
e 324 849
e 324 386
e 325 392
e 325 465
e 325 344
e 325 336
e 327 971
e 327 374
e 327 940
e 327 392
e 327 840
e 327 994
e 328 815
e 328 963
e 328 780
e 328 724
e 331 590
e 331 339
e 331 727
e 334 441
e 334 375
e 334 678
e 334 633
e 334 950
e 334 930
e 334 520
e 334 474
e 335 613
e 335 985
e 335 874
e 336 997
e 336 713
e 336 520
e 336 949
e 336 643
e 336 983
e 336 971
e 337 581
e 337 382
e 337 383
e 338 945
e 338 760
e 338 796
e 339 497
e 339 808
e 339 526
e 339 725
e 340 404
e 341 383
e 341 900
e 342 702
e 342 455
e 344 444
e 344 695
e 345 531
e 345 701
e 346 732
e 346 628
e 349 713
e 349 869
e 349 811
e 349 841
e 349 433
e 349 928
e 350 758
e 350 594
e 350 988
e 351 989
e 351 525
e 351 741
e 354 470
e 354 848
e 354 727
e 354 699
e 355 956
e 355 905
e 355 544
e 356 401
e 356 650
e 356 433
e 357 461
e 357 649
e 358 372
e 358 776
e 359 952
e 360 854
e 360 539
e 360 984
e 361 362
e 361 389
e 361 592
e 362 926
e 362 917
e 362 681
e 364 957
e 364 982
e 364 535
e 365 421
e 365 619
e 365 980
e 365 537
e 365 612
e 366 397
e 366 952
e 370 583
e 371 747
e 371 677
e 371 788
e 372 634
e 372 570
e 374 887
e 374 964
e 374 776
e 374 424
e 374 378
e 375 658
e 375 708
e 376 440
e 376 595
e 376 541
e 377 552
e 377 382
e 377 922
e 377 684
e 377 936
e 377 814
e 377 968
e 378 564
e 378 508
e 378 772
e 378 939
e 379 398
e 379 822
e 380 523
e 380 473
e 380 644
e 380 410
e 381 707
e 381 555
e 381 998
e 381 818
e 381 751
e 382 538
e 386 476
e 386 402
e 386 566
e 386 674
e 387 886
e 387 709
e 387 431
e 388 651
e 388 433
e 388 541
e 388 393
e 388 454
e 389 821
e 389 515
e 390 709
e 390 716
e 390 925
e 392 444
e 392 639
e 392 662
e 393 708
e 393 813
e 393 443
e 395 989
e 395 520
e 396 486
e 396 628
e 396 465
e 397 978
e 397 806
e 397 751
e 397 745
e 397 472
e 397 529
e 398 937
e 398 513
e 398 413
e 398 683
e 399 604
e 400 447
e 400 774
e 401 959
e 401 493
e 401 715
e 402 966
e 402 630
e 402 944
e 403 739
e 403 574
e 403 527
e 404 592
e 404 673
e 406 457
e 406 435
e 406 533
e 410 943
e 410 788
e 410 761
e 410 671
e 412 633
e 412 569
e 413 797
e 413 541
e 413 561
e 413 642
e 413 631
e 414 912
e 414 893
e 414 805
e 415 643
e 415 860
e 415 567
e 417 568
e 417 871
e 417 588
e 417 703
e 418 443
e 418 498
e 419 647
e 419 943
e 419 793
e 419 494
e 419 894
e 421 902
e 421 686
e 423 700
e 423 681
e 423 617
e 424 813
e 426 821
e 426 609
e 426 696
e 426 530
e 427 516
e 428 436
e 428 959
e 430 469
e 430 892
e 430 479
e 431 757
e 431 500
e 432 647
e 432 670
e 433 538
e 433 642
e 433 535
e 434 547
e 434 649
e 435 797
e 435 724
e 436 527
e 436 822
e 436 708
e 436 978
e 438 722
e 438 477
e 438 591
e 440 842
e 440 903
e 440 581
e 440 910
e 441 608
e 441 853
e 441 958
e 441 658
e 441 746
e 441 514
e 442 621
e 442 552
e 443 849
e 443 489
e 443 859
e 444 907
e 444 963
e 444 758
e 446 783
e 446 512
e 446 733
e 447 972
e 447 518
e 451 604
e 451 551
e 451 647
e 452 507
e 452 773
e 452 586
e 452 975
e 453 699
e 453 604
e 454 874
e 455 714
e 455 457
e 457 493
e 457 554
e 457 808
e 457 552
e 457 933
e 457 586
e 460 559
e 460 925
e 460 677
e 460 657
e 461 682
e 461 603
e 461 701
e 461 791
e 461 973
e 464 857
e 465 470
e 465 948
e 466 901
e 466 991
e 466 582
e 467 488
e 467 991
e 467 807
e 467 778
e 467 927
e 467 682
e 467 747
e 468 575
e 468 880
e 468 725
e 469 653
e 469 783
e 469 520
e 471 746
e 471 674
e 471 841
e 472 778
e 472 670
e 472 533
e 472 766
e 473 735
e 473 530
e 473 583
e 473 511
e 473 927
e 473 881
e 473 655
e 474 919
e 475 920
e 475 565
e 475 773
e 476 671
e 476 682
e 477 484
e 477 931
e 479 567
e 479 914
e 479 983
e 479 552
e 482 965
e 483 528
e 483 799
e 484 836
e 484 622
e 484 765
e 485 616
e 485 694
e 485 510
e 486 657
e 487 630
e 487 826
e 488 670
e 489 970
e 489 579
e 489 717
e 490 748
e 490 948
e 490 498
e 491 972
e 491 797
e 491 512
e 491 699
e 492 811
e 492 592
e 492 975
e 493 824
e 494 955
e 495 763
e 495 614
e 495 893
e 495 739
e 496 758
e 497 627
e 497 559
e 497 917
e 498 592
e 498 644
e 499 836
e 499 839
e 499 707
e 500 780
e 501 821
e 501 611
e 502 968
e 503 848
e 503 766
e 503 622
e 503 835
e 504 848
e 504 784
e 505 939
e 505 615
e 505 760
e 505 631
e 506 849
e 506 863
e 506 773
e 507 513
e 507 938
e 507 817
e 507 760
e 508 516
e 508 849
e 508 604
e 508 727
e 510 844
e 510 815
e 510 973
e 511 755
e 511 919
e 511 981
e 512 643
e 514 861
e 514 711
e 515 769
e 515 660
e 516 569
e 516 939
e 516 844
e 516 567
e 517 910
e 517 912
e 517 939
e 517 565
e 518 565
e 518 980
e 518 836
e 520 817
e 520 555
e 520 987
e 523 537
e 523 657
e 523 633
e 525 559
e 526 822
e 526 917
e 526 718
e 527 570
e 528 603
e 528 968
e 528 633
e 528 796
e 529 919
e 529 831
e 529 766
e 530 650
e 531 651
e 533 842
e 534 831
e 534 544
e 535 885
e 535 901
e 535 892
e 536 539
e 536 784
e 536 632
e 536 818
e 537 924
e 537 553
e 537 818
e 537 659
e 538 581
e 538 701
e 539 799
e 541 937
e 543 969
e 544 930
e 547 612
e 547 626
e 547 962
e 547 639
e 548 647
e 548 702
e 549 968
e 549 589
e 549 945
e 551 798
e 551 638
e 551 977
e 552 717
e 552 786
e 552 574
e 553 592
e 553 748
e 554 815
e 555 910
e 555 680
e 555 996
e 555 826
e 555 767
e 559 609
e 559 658
e 559 710
e 560 828
e 560 924
e 560 779
e 561 910
e 561 861
e 563 799
e 563 565
e 564 930
e 564 804
e 564 826
e 565 671
e 565 724
e 566 963
e 566 614
e 567 683
e 567 784
e 568 595
e 569 683
e 569 687
e 569 591
e 569 780
e 570 659
e 570 922
e 574 995
e 574 811
e 575 942
e 575 957
e 577 632
e 577 583
e 581 838
e 581 598
e 583 815
e 583 944
e 588 881
e 589 619
e 589 952
e 590 695
e 590 914
e 592 758
e 594 608
e 594 733
e 595 846
e 596 993
e 596 700
e 596 680
e 596 726
e 598 981
e 598 902
e 598 752
e 598 617
e 599 688
e 599 841
e 599 689
e 603 612
e 603 902
e 603 620
e 603 747
e 603 681
e 604 662
e 604 814
e 606 789
e 606 752
e 607 983
e 607 810
e 608 801
e 608 689
e 609 808
e 609 974
e 611 922
e 612 769
e 612 886
e 613 767
e 613 680
e 613 963
e 614 661
e 614 836
e 614 782
e 615 853
e 615 710
e 615 805
e 616 632
e 616 695
e 617 810
e 617 947
e 620 726
e 620 842
e 620 634
e 621 658
e 621 751
e 622 676
e 622 641
e 623 771
e 623 972
e 624 861
e 625 960
e 626 864
e 627 676
e 627 957
e 628 778
e 629 963
e 629 880
e 630 768
e 631 868
e 632 700
e 632 647
e 633 983
e 634 857
e 639 778
e 640 846
e 640 767
e 641 864
e 642 893
e 642 875
e 642 978
e 644 782
e 647 939
e 648 835
e 649 714
e 649 958
e 649 789
e 649 816
e 649 680
e 650 780
e 651 666
e 653 945
e 655 855
e 657 805
e 657 751
e 658 967
e 659 902
e 661 766
e 661 745
e 663 989
e 663 764
e 663 903
e 663 816
e 664 814
e 665 686
e 665 776
e 665 898
e 670 957
e 670 713
e 671 773
e 671 776
e 671 767
e 673 987
e 674 828
e 674 736
e 678 948
e 680 706
e 680 964
e 680 709
e 682 887
e 683 772
e 684 853
e 684 854
e 684 699
e 685 984
e 685 803
e 687 742
e 688 699
e 689 849
e 689 892
e 693 813
e 693 830
e 694 944
e 694 903
e 695 788
e 695 980
e 697 898
e 697 926
e 698 853
e 698 994
e 698 778
e 699 978
e 699 933
e 700 908
e 700 876
e 702 891
e 702 869
e 702 981
e 703 763
e 703 848
e 706 860
e 706 806
e 707 749
e 707 923
e 707 998
e 707 957
e 708 894
e 708 769
e 708 931
e 709 900
e 709 894
e 710 834
e 713 970
e 714 803
e 715 764
e 715 868
e 716 741
e 719 925
e 719 976
e 719 887
e 719 727
e 722 839
e 725 997
e 726 964
e 727 861
e 729 830
e 729 824
e 733 815
e 735 936
e 735 793
e 736 938
e 736 836
e 739 892
e 739 755
e 739 752
e 741 828
e 742 948
e 742 922
e 746 936
e 746 770
e 746 888
e 747 964
e 747 981
e 748 903
e 748 851
e 748 786
e 749 767
e 751 914
e 752 804
e 755 826
e 756 838
e 756 776
e 757 788
e 757 816
e 758 791
e 759 838
e 759 902
e 760 972
e 760 916
e 760 926
e 761 925
e 761 962
e 763 987
e 765 835
e 767 942
e 768 859
e 769 974
e 770 896
e 770 947
e 770 836
e 771 945
e 771 860
e 773 881
e 773 888
e 774 914
e 775 813
e 775 851
e 775 855
e 778 971
e 778 883
e 778 829
e 778 809
e 778 820
e 782 881
e 782 974
e 783 998
e 788 901
e 788 899
e 788 810
e 788 997
e 793 911
e 796 901
e 797 930
e 798 800
e 798 990
e 799 996
e 801 924
e 801 875
e 804 811
e 806 826
e 807 926
e 808 809
e 809 916
e 811 978
e 811 950
e 814 914
e 819 923
e 819 969
e 819 840
e 820 949
e 824 984
e 826 976
e 826 853
e 829 899
e 829 936
e 829 891
e 831 975
e 839 847
e 845 995
e 845 903
e 846 924
e 847 863
e 851 924
e 851 972
e 853 958
e 854 869
e 855 971
e 861 956
e 868 896
e 868 978
e 871 885
e 872 980
e 874 890
e 875 923
e 881 911
e 883 954
e 883 968
e 886 911
e 887 995
e 892 917
e 893 936
e 896 898
e 912 965
e 912 931
e 914 990
e 914 937
e 914 993
e 916 976
e 917 924
e 920 976
e 923 968
e 925 960
e 925 949
e 928 963
e 933 939
e 944 981
e 950 958
e 952 958
e 960 988
e 962 978
e 963 990
e 967 987
e 967 977
e 982 983
e 987 997
e 996 997
